5 
9 
4 
2 
3 
3 
7 
4 
8 
7 
2 
6 
9 
6 
5 
8 
6 
5 
3 
6 
5 
5 
6 
8 
5 
3 
4 
6 
6 
6 
4 
4 
5 
4 
10 
8 
4 
5 
9 
8 
8 
4 
4 
8 
6 
4 
4 
7 
3 
4 
5 
3 
3 
4 
3 
4 
7 
4 
3 
5 
5 
6 
2 
5 
4 
5 
5 
7 
6 
2 
4 
5 
5 
5 
9 
4 
4 
4 
6 
5 
6 
5 
1 
10 
6 
2 
6 
5 
2 
3 
8 
5 
4 
5 
11 
11 
3 
6 
5 
1 
